rcpsp/heur_output_or_constraints/Log=1/heurj90.txt
encoding rcpsp/j90.sm/j9013_7.sm nv: 2768000 nc: 5644595 enctime: 44.57
encoding rcpsp/j90.sm/j9013_7.sm nv: 736288 nc: 1498963 enctime: 9.76
c File: j9013_7.smnaiveor1.wcnf
c timeout
c final solution cost: 134
c CPU time: 65.975074
s UNKNOWN

c File: j9013_7.smor1.wcnf
c timeout
c CPU time: 61.008735
s UNKNOWN


rcpsp/heur_output_or_constraints/Log=1/heurj90.txt
encoding rcpsp/j90.sm/j9013_8.sm nv: 3019275 nc: 6139514 enctime: 48.04
encoding rcpsp/j90.sm/j9013_8.sm nv: 783675 nc: 1591034 enctime: 9.14
c File: j9013_8.smnaiveor1.wcnf
c timeout
c final solution cost: 124
c CPU time: 66.399165
s UNKNOWN

c File: j9013_8.smor1.wcnf
c timeout
c CPU time: 61.039463
s UNKNOWN


rcpsp/heur_output_or_constraints/Log=1/heurj90.txt
encoding rcpsp/j90.sm/j9013_9.sm nv: 2194388 nc: 4458471 enctime: 34.92
encoding rcpsp/j90.sm/j9013_9.sm nv: 674422 nc: 1368407 enctime: 7.77
c File: j9013_9.smnaiveor1.wcnf
c timeout
c final solution cost: 132
c CPU time: 64.744319
s UNKNOWN

c File: j9013_9.smor1.wcnf
c timeout
c CPU time: 60.942737
s UNKNOWN


rcpsp/heur_output_or_constraints/Log=1/heurj90.txt
encoding rcpsp/j90.sm/j901_3.sm nv: 341320 nc: 787297 enctime: 11.00
encoding rcpsp/j90.sm/j901_3.sm nv: 45262 nc: 101815 enctime: 0.79
c File: j901_3.smnaiveor1.wcnf
c timeout
c final solution cost: 56
c CPU time: 62.303841
s UNKNOWN

c File: j901_3.smor1.wcnf
c timeout
c final solution cost: 55
c CPU time: 60.090967
s UNKNOWN


rcpsp/heur_output_or_constraints/Log=1/heurj90.txt
encoding rcpsp/j90.sm/j9014_10.sm nv: 4837306 nc: 9745397 enctime: 69.92
encoding rcpsp/j90.sm/j9014_10.sm nv: 794908 nc: 1598468 enctime: 9.44
c File: j9014_10.smnaiveor1.wcnf
c timeout
c CPU time: 67.844279
s UNKNOWN

c File: j9014_10.smor1.wcnf
c timeout
c CPU time: 60.892481
s UNKNOWN


rcpsp/heur_output_or_constraints/Log=1/heurj90.txt
encoding rcpsp/j90.sm/j9014_1.sm nv: 4968417 nc: 10006528 enctime: 66.26
encoding rcpsp/j90.sm/j9014_1.sm nv: 753692 nc: 1515028 enctime: 8.55
c File: j9014_1.smnaiveor1.wcnf
c timeout
c CPU time: 67.630819
s UNKNOWN

c File: j9014_1.smor1.wcnf
c timeout
c CPU time: 60.848855
s UNKNOWN


rcpsp/heur_output_or_constraints/Log=1/heurj90.txt
encoding rcpsp/j90.sm/j9014_2.sm nv: 4765122 nc: 9584527 enctime: 62.99
encoding rcpsp/j90.sm/j9014_2.sm nv: 723816 nc: 1453273 enctime: 8.22
c File: j9014_2.smnaiveor1.wcnf
c timeout
c final solution cost: 105
c CPU time: 68.152576
s UNKNOWN

c File: j9014_2.smor1.wcnf
c timeout
c final solution cost: 65
c CPU time: 60.990212
s UNKNOWN


rcpsp/heur_output_or_constraints/Log=1/heurj90.txt
encoding rcpsp/j90.sm/j9014_3.sm nv: 5873230 nc: 11800515 enctime: 76.35
encoding rcpsp/j90.sm/j9014_3.sm nv: 835670 nc: 1676175 enctime: 9.58
c File: j9014_3.smnaiveor1.wcnf
c timeout
c final solution cost: 67
c CPU time: 69.431409
s UNKNOWN

c File: j9014_3.smor1.wcnf
c timeout
c CPU time: 60.915902
s UNKNOWN


rcpsp/heur_output_or_constraints/Log=1/heurj90.txt
encoding rcpsp/j90.sm/j9014_4.sm nv: 5080500 nc: 10225139 enctime: 67.50
encoding rcpsp/j90.sm/j9014_4.sm nv: 833202 nc: 1674113 enctime: 9.29
c File: j9014_4.smnaiveor1.wcnf
c timeout
c final solution cost: 82
c CPU time: 68.608685
s UNKNOWN

c File: j9014_4.smor1.wcnf
c timeout
c final solution cost: 75
c CPU time: 61.118625
s UNKNOWN


rcpsp/heur_output_or_constraints/Log=1/heurj90.txt
encoding rcpsp/j90.sm/j9014_5.sm nv: 5760705 nc: 11571214 enctime: 75.79
encoding rcpsp/j90.sm/j9014_5.sm nv: 841320 nc: 1686976 enctime: 9.70
c File: j9014_5.smnaiveor1.wcnf
c timeout
c final solution cost: 67
c CPU time: 69.313462
s UNKNOWN

c File: j9014_5.smor1.wcnf
c timeout
c final solution cost: 66
c CPU time: 61.118440
s UNKNOWN


rcpsp/heur_output_or_constraints/Log=1/heurj90.txt
encoding rcpsp/j90.sm/j9014_6.sm nv: 5393402 nc: 10860937 enctime: 72.80
encoding rcpsp/j90.sm/j9014_6.sm nv: 786975 nc: 1581794 enctime: 7.25
c File: j9014_6.smnaiveor1.wcnf
c timeout
c final solution cost: 77
c CPU time: 69.340203
s UNKNOWN

c File: j9014_6.smor1.wcnf
c timeout
c CPU time: 60.890390
s UNKNOWN


rcpsp/heur_output_or_constraints/Log=1/heurj90.txt
encoding rcpsp/j90.sm/j9014_7.sm nv: 6555585 nc: 13145269 enctime: 85.98
encoding rcpsp/j90.sm/j9014_7.sm nv: 837440 nc: 1676204 enctime: 9.90
c File: j9014_7.smnaiveor1.wcnf
c timeout
c final solution cost: 54
c CPU time: 70.257902
s UNKNOWN

c File: j9014_7.smor1.wcnf
c timeout
c final solution cost: 54
c CPU time: 61.092044
s UNKNOWN


rcpsp/heur_output_or_constraints/Log=1/heurj90.txt
encoding rcpsp/j90.sm/j9014_8.sm nv: 5689712 nc: 11449411 enctime: 75.96
encoding rcpsp/j90.sm/j9014_8.sm nv: 801832 nc: 1610461 enctime: 9.29
c File: j9014_8.smnaiveor1.wcnf
c timeout
c CPU time: 68.467367
s UNKNOWN

c File: j9014_8.smor1.wcnf
c timeout
c final solution cost: 69
c CPU time: 61.076578
s UNKNOWN


rcpsp/heur_output_or_constraints/Log=1/heurj90.txt
encoding rcpsp/j90.sm/j9014_9.sm nv: 4949438 nc: 9993198 enctime: 68.03
encoding rcpsp/j90.sm/j9014_9.sm nv: 863598 nc: 1740558 enctime: 9.64
c File: j9014_9.smnaiveor1.wcnf
c timeout
c final solution cost: 88
c CPU time: 68.690250
s UNKNOWN

c File: j9014_9.smor1.wcnf
c timeout
c final solution cost: 89
c CPU time: 61.195921
s UNKNOWN


rcpsp/heur_output_or_constraints/Log=1/heurj90.txt
encoding rcpsp/j90.sm/j901_4.sm nv: 339378 nc: 807427 enctime: 11.16
encoding rcpsp/j90.sm/j901_4.sm nv: 58395 nc: 136258 enctime: 0.94
c File: j901_4.smnaiveor1.wcnf
c timeout
c final solution cost: 73
c CPU time: 62.431609
s UNKNOWN

c File: j901_4.smor1.wcnf
c timeout
c final solution cost: 74
c CPU time: 60.129359
s UNKNOWN


rcpsp/heur_output_or_constraints/Log=1/heurj90.txt
encoding rcpsp/j90.sm/j9015_10.sm nv: 5725343 nc: 11486651 enctime: 74.44
encoding rcpsp/j90.sm/j9015_10.sm nv: 749889 nc: 1501885 enctime: 8.76
c File: j9015_10.smnaiveor1.wcnf
c timeout
c final solution cost: 59
c CPU time: 69.033409
s UNKNOWN

c File: j9015_10.smor1.wcnf
c timeout
c final solution cost: 59
c CPU time: 61.004174
s UNKNOWN


rcpsp/heur_output_or_constraints/Log=1/heurj90.txt
encoding rcpsp/j90.sm/j9015_1.sm nv: 6431508 nc: 12865429 enctime: 81.16
encoding rcpsp/j90.sm/j9015_1.sm nv: 725679 nc: 1448959 enctime: 8.75
c File: j9015_1.smnaiveor1.wcnf
c timeout
c final solution cost: 46
c CPU time: 69.631699
s UNKNOWN

c File: j9015_1.smor1.wcnf
c timeout
c final solution cost: 46
c CPU time: 60.955417
s UNKNOWN


rcpsp/heur_output_or_constraints/Log=1/heurj90.txt
encoding rcpsp/j90.sm/j9015_2.sm nv: 6879910 nc: 13795665 enctime: 88.61
encoding rcpsp/j90.sm/j9015_2.sm nv: 781185 nc: 1563505 enctime: 9.48
c File: j9015_2.smnaiveor1.wcnf
c optimal
c final solution cost: 56
c CPU time: 56.989160
s OPTIMUM FOUND

c File: j9015_2.smor1.wcnf
c optimal
c final solution cost: 56
c CPU time: 1.590716
s OPTIMUM FOUND


rcpsp/heur_output_or_constraints/Log=1/heurj90.txt
encoding rcpsp/j90.sm/j9015_3.sm nv: 6007690 nc: 12050758 enctime: 77.82
encoding rcpsp/j90.sm/j9015_3.sm nv: 761890 nc: 1525558 enctime: 8.98
c File: j9015_3.smnaiveor1.wcnf
c optimal
c final solution cost: 59
c CPU time: 27.599620
s OPTIMUM FOUND

c File: j9015_3.smor1.wcnf
c optimal
c final solution cost: 59
c CPU time: 9.683018
s OPTIMUM FOUND


rcpsp/heur_output_or_constraints/Log=1/heurj90.txt
encoding rcpsp/j90.sm/j9015_4.sm nv: 7260949 nc: 14549360 enctime: 94.82
encoding rcpsp/j90.sm/j9015_4.sm nv: 814856 nc: 1629708 enctime: 7.57
c File: j9015_4.smnaiveor1.wcnf
c timeout
c CPU time: 69.939844
s UNKNOWN

c File: j9015_4.smor1.wcnf
c timeout
c CPU time: 60.884270
s UNKNOWN


rcpsp/heur_output_or_constraints/Log=1/heurj90.txt
encoding rcpsp/j90.sm/j9015_5.sm nv: 5389200 nc: 10838950 enctime: 72.76
encoding rcpsp/j90.sm/j9015_5.sm nv: 788400 nc: 1582822 enctime: 9.23
c File: j9015_5.smnaiveor1.wcnf
c timeout
c final solution cost: 71
c CPU time: 69.038200
s UNKNOWN

c File: j9015_5.smor1.wcnf
c timeout
c CPU time: 60.919627
s UNKNOWN


rcpsp/heur_output_or_constraints/Log=1/heurj90.txt
encoding rcpsp/j90.sm/j9015_6.sm nv: 7615176 nc: 15240815 enctime: 97.06
encoding rcpsp/j90.sm/j9015_6.sm nv: 820334 nc: 1638839 enctime: 10.10
c File: j9015_6.smnaiveor1.wcnf
c timeout
c CPU time: 70.163068
s UNKNOWN

c File: j9015_6.smor1.wcnf
c timeout
c CPU time: 60.886842
s UNKNOWN


rcpsp/heur_output_or_constraints/Log=1/heurj90.txt
encoding rcpsp/j90.sm/j9015_7.sm nv: 5947000 nc: 11925497 enctime: 76.10
encoding rcpsp/j90.sm/j9015_7.sm nv: 776240 nc: 1553828 enctime: 9.05
c File: j9015_7.smnaiveor1.wcnf
c timeout
c final solution cost: 56
c CPU time: 69.479178
s UNKNOWN

c File: j9015_7.smor1.wcnf
c timeout
c final solution cost: 56
c CPU time: 61.037328
s UNKNOWN


rcpsp/heur_output_or_constraints/Log=1/heurj90.txt
encoding rcpsp/j90.sm/j9015_8.sm nv: 5681986 nc: 11402235 enctime: 74.94
encoding rcpsp/j90.sm/j9015_8.sm nv: 748881 nc: 1499920 enctime: 8.92
c File: j9015_8.smnaiveor1.wcnf
c timeout
c final solution cost: 60
c CPU time: 68.980116
s UNKNOWN

c File: j9015_8.smor1.wcnf
c timeout
c final solution cost: 59
c CPU time: 60.996752
s UNKNOWN


rcpsp/heur_output_or_constraints/Log=1/heurj90.txt
encoding rcpsp/j90.sm/j9015_9.sm nv: 7193000 nc: 14405511 enctime: 94.33
encoding rcpsp/j90.sm/j9015_9.sm nv: 834388 nc: 1667955 enctime: 7.80
c File: j9015_9.smnaiveor1.wcnf
c timeout
c final solution cost: 54
c CPU time: 70.874429
s UNKNOWN

c File: j9015_9.smor1.wcnf
c timeout
c CPU time: 60.897026
s UNKNOWN


rcpsp/heur_output_or_constraints/Log=1/heurj90.txt
encoding rcpsp/j90.sm/j901_5.sm nv: 336742 nc: 786696 enctime: 10.46
encoding rcpsp/j90.sm/j901_5.sm nv: 53132 nc: 121516 enctime: 0.84
c File: j901_5.smnaiveor1.wcnf
c timeout
c final solution cost: 60
c CPU time: 62.178892
s UNKNOWN

c File: j901_5.smor1.wcnf
c timeout
c final solution cost: 59
c CPU time: 60.116537
s UNKNOWN


rcpsp/heur_output_or_constraints/Log=1/heurj90.txt
encoding rcpsp/j90.sm/j9016_10.sm nv: 7135656 nc: 14261256 enctime: 90.27
encoding rcpsp/j90.sm/j9016_10.sm nv: 756096 nc: 1508616 enctime: 6.99
c File: j9016_10.smnaiveor1.wcnf
c optimal
c final solution cost: 47
c CPU time: 16.318702
s OPTIMUM FOUND

c File: j9016_10.smor1.wcnf
c optimal
c final solution cost: 47
c CPU time: 1.289014
s OPTIMUM FOUND


rcpsp/heur_output_or_constraints/Log=1/heurj90.txt
encoding rcpsp/j90.sm/j9016_1.sm nv: 9261600 nc: 18512083 enctime: 116.89
encoding rcpsp/j90.sm/j9016_1.sm nv: 871680 nc: 1739173 enctime: 11.03
c File: j9016_1.smnaiveor1.wcnf
c timeout
c CPU time: 72.628648
s UNKNOWN

c File: j9016_1.smor1.wcnf
c timeout
c CPU time: 60.946428
s UNKNOWN


rcpsp/heur_output_or_constraints/Log=1/heurj90.txt
encoding rcpsp/j90.sm/j9016_2.sm nv: 8249556 nc: 16486475 enctime: 102.59
encoding rcpsp/j90.sm/j9016_2.sm nv: 918543 nc: 1832909 enctime: 10.99
c File: j9016_2.smnaiveor1.wcnf
c optimal
c final solution cost: 52
c CPU time: 16.373058
s OPTIMUM FOUND

c File: j9016_2.smor1.wcnf
c optimal
c final solution cost: 52
c CPU time: 1.511513
s OPTIMUM FOUND


rcpsp/heur_output_or_constraints/Log=1/heurj90.txt
encoding rcpsp/j90.sm/j9016_3.sm nv: 7242985 nc: 14502041 enctime: 94.27
encoding rcpsp/j90.sm/j9016_3.sm nv: 769295 nc: 1537267 enctime: 7.12
c File: j9016_3.smnaiveor1.wcnf
c timeout
c CPU time: 69.900155
s UNKNOWN

c File: j9016_3.smor1.wcnf
c timeout
c CPU time: 60.837971
s UNKNOWN


rcpsp/heur_output_or_constraints/Log=1/heurj90.txt
encoding rcpsp/j90.sm/j9016_4.sm nv: 8573351 nc: 17137506 enctime: 108.98
encoding rcpsp/j90.sm/j9016_4.sm nv: 820667 nc: 1637466 enctime: 7.54
c File: j9016_4.smnaiveor1.wcnf
c optimal
c final solution cost: 46
c CPU time: 22.011085
s OPTIMUM FOUND

c File: j9016_4.smor1.wcnf
c optimal
c final solution cost: 46
c CPU time: 1.584983
s OPTIMUM FOUND


rcpsp/heur_output_or_constraints/Log=1/heurj90.txt
encoding rcpsp/j90.sm/j9016_5.sm nv: 7854002 nc: 15680827 enctime: 97.64
encoding rcpsp/j90.sm/j9016_5.sm nv: 824928 nc: 1644356 enctime: 10.09
c File: j9016_5.smnaiveor1.wcnf
c timeout
c final solution cost: 408
c CPU time: 71.543580
s UNKNOWN

c File: j9016_5.smor1.wcnf
c timeout
c final solution cost: 41
c CPU time: 61.060216
s UNKNOWN


rcpsp/heur_output_or_constraints/Log=1/heurj90.txt
encoding rcpsp/j90.sm/j9016_6.sm nv: 12037272 nc: 24018989 enctime: 153.16
encoding rcpsp/j90.sm/j9016_6.sm nv: 1106616 nc: 2204625 enctime: 10.48
c File: j9016_6.smnaiveor1.wcnf
c optimal
c final solution cost: 47
c CPU time: 25.701755
s OPTIMUM FOUND

c File: j9016_6.smor1.wcnf
c optimal
c final solution cost: 47
c CPU time: 2.186990
s OPTIMUM FOUND


rcpsp/heur_output_or_constraints/Log=1/heurj90.txt
encoding rcpsp/j90.sm/j9016_7.sm nv: 7499993 nc: 14967808 enctime: 93.20
encoding rcpsp/j90.sm/j9016_7.sm nv: 848729 nc: 1691392 enctime: 10.29
c File: j9016_7.smnaiveor1.wcnf
c optimal
c final solution cost: 46
c CPU time: 16.901310
s OPTIMUM FOUND

c File: j9016_7.smor1.wcnf
c optimal
c final solution cost: 46
c CPU time: 1.859476
s OPTIMUM FOUND


rcpsp/heur_output_or_constraints/Log=1/heurj90.txt
encoding rcpsp/j90.sm/j9016_8.sm nv: 9230809 nc: 18430616 enctime: 114.80
encoding rcpsp/j90.sm/j9016_8.sm nv: 828653 nc: 1651592 enctime: 10.66
c File: j9016_8.smnaiveor1.wcnf
c optimal
c final solution cost: 42
c CPU time: 21.400568
s OPTIMUM FOUND

c File: j9016_8.smor1.wcnf
c optimal
c final solution cost: 42
c CPU time: 1.470060
s OPTIMUM FOUND


rcpsp/heur_output_or_constraints/Log=1/heurj90.txt
encoding rcpsp/j90.sm/j9016_9.sm nv: 8795952 nc: 17602021 enctime: 113.22
encoding rcpsp/j90.sm/j9016_9.sm nv: 866268 nc: 1730277 enctime: 8.05
c File: j9016_9.smnaiveor1.wcnf
c timeout
c final solution cost: 45
c CPU time: 73.591999
s UNKNOWN

c File: j9016_9.smor1.wcnf
c timeout
c final solution cost: 45
c CPU time: 61.107421
s UNKNOWN


rcpsp/heur_output_or_constraints/Log=1/heurj90.txt
encoding rcpsp/j90.sm/j901_6.sm nv: 382962 nc: 898045 enctime: 12.07
encoding rcpsp/j90.sm/j901_6.sm nv: 56906 nc: 130605 enctime: 0.93
c File: j901_6.smnaiveor1.wcnf
c timeout
c final solution cost: 61
c CPU time: 62.498184
s UNKNOWN

c File: j901_6.smor1.wcnf
c timeout
c final solution cost: 61
c CPU time: 60.112929
s UNKNOWN


rcpsp/heur_output_or_constraints/Log=1/heurj90.txt
encoding rcpsp/j90.sm/j9017_10.sm nv: 351945 nc: 834783 enctime: 12.64
encoding rcpsp/j90.sm/j9017_10.sm nv: 59013 nc: 137267 enctime: 0.62
c File: j9017_10.smnaiveor1.wcnf
c timeout
c final solution cost: 74
c CPU time: 62.773231
s UNKNOWN

c File: j9017_10.smor1.wcnf
c timeout
c final solution cost: 74
c CPU time: 60.130564
s UNKNOWN


rcpsp/heur_output_or_constraints/Log=1/heurj90.txt
encoding rcpsp/j90.sm/j9017_1.sm nv: 333586 nc: 816297 enctime: 12.88
encoding rcpsp/j90.sm/j9017_1.sm nv: 57761 nc: 138422 enctime: 1.04
c File: j9017_1.smnaiveor1.wcnf
c timeout
c final solution cost: 72
c CPU time: 62.866442
s UNKNOWN

c File: j9017_1.smor1.wcnf
c timeout
c final solution cost: 72
c CPU time: 60.144310
s UNKNOWN


rcpsp/heur_output_or_constraints/Log=1/heurj90.txt
encoding rcpsp/j90.sm/j9017_2.sm nv: 326529 nc: 787161 enctime: 12.14
encoding rcpsp/j90.sm/j9017_2.sm nv: 61758 nc: 145988 enctime: 1.06
c File: j9017_2.smnaiveor1.wcnf
c timeout
c final solution cost: 81
c CPU time: 63.002128
s UNKNOWN

c File: j9017_2.smor1.wcnf
c timeout
c final solution cost: 82
c CPU time: 60.150297
s UNKNOWN


